100
128
251
295
164
347
316
267
190
140
376
278
342
324
237
380
356
115
355
170
121
341
303
183
166
117
259
203
255
134
287
301
215
190
248
279
138
165
199
228
205
175
106
199
151
243
179
107
310
186
230
384
127
185
219
193
202
378
297
109
165
236
310
280
326
211
211
116
276
362
296
133
189
302
284
293
197
115
352
160
201
182
196
280
0
